# EtherH1

pair_style lj/class2/coul/long    18.0
pair_coeff    1    1       0.0200       3.8540
pair_coeff    2    2       0.0800       3.3000
pair_coeff    3    3       0.0600       3.5000
pair_coeff    4    4       0.0200       3.8540
pair_coeff    5    5       0.0200       3.8540
pair_coeff    6    6       0.0200       3.8540
pair_coeff    7    7       0.0200       3.8540
pair_coeff    8    8       0.0200       3.8540
pair_coeff    9    9       0.0200       3.8540
pair_coeff   10   10       0.0748       3.8700
pair_coeff   11   11       0.0748       3.8700
pair_coeff   12   12       0.0720       3.8000
pair_coeff   13   13       0.0720       3.8000
pair_coeff   14   14       0.1200       3.3000
pair_coeff   15   15       0.1200       3.3000
pair_coeff   16   16       0.1920       3.4300
pair_coeff   17   17       0.1920       3.4300

bond_style class2
bond_coeff    1       1.5300     299.6700    -501.7674     679.8014
bond_coeff    2       1.5780     154.7500    -309.5000     361.0782
bond_coeff    3       1.4200     400.3954    -835.1848    1313.0166
bond_coeff    4       1.2160     823.7948   -1878.8288    2303.4950
bond_coeff    5       1.5140     300.3719    -465.8167     473.8367
bond_coeff    6       1.4200     400.3954    -835.1848    1313.0166
bond_coeff    7       1.3200     453.6588    -834.8683    1115.9553

angle_style class2
angle_coeff    1          108.7280      58.5446     -10.8073     -12.3997
angle_coeff    1   bb       0.0000       1.4200       1.3200
angle_coeff    1   ba       0.0000       0.0000       1.4200       1.3200
angle_coeff    2          107.6000     127.5160     -42.6286      -0.4081
angle_coeff    2   bb      86.8027       1.3200       1.3200
angle_coeff    2   ba      94.2351      94.2351       1.3200       1.3200
angle_coeff    3          110.0676      82.9565     -21.5438     -18.5408
angle_coeff    3   bb      23.9480       1.5300       1.3200
angle_coeff    3   ba      26.5243      91.9142       1.5300       1.3200
angle_coeff    4          111.2700      54.5381      -8.3661     -13.0837
angle_coeff    4   bb      11.4318       1.5300       1.4200
angle_coeff    4   ba       2.6868      20.4033       1.5300       1.4200
angle_coeff    5          112.6700      39.5160      -7.4448      -9.5589
angle_coeff    5   bb       0.0000       1.5300       1.5300
angle_coeff    5   ba       8.0160       8.0160       1.5300       1.5300
angle_coeff    6          112.6700      39.5160      -7.4448      -9.5589
angle_coeff    6   bb       0.0000       1.5300       1.5780
angle_coeff    6   ba       8.0160       8.0160       1.5300       1.5780
angle_coeff    7          104.5000      35.7454     -10.0051      -6.2733
angle_coeff    7   bb      -7.1131       1.4200       1.4200
angle_coeff    7   ba      -2.8112      -2.8112       1.4200       1.4200
angle_coeff    8          106.1764      74.4143     -12.5983     -15.0763
angle_coeff    8   bb       6.2211       1.4200       1.5140
angle_coeff    8   ba       6.5577     -12.1485       1.4200       1.5140
angle_coeff    9          108.4000      43.9594      -8.3918      -9.3370
angle_coeff    9   bb      16.1683       1.5780       1.5140
angle_coeff    9   ba      18.1678      15.8758       1.5780       1.5140
angle_coeff   10          111.2700      54.5381      -8.3661     -13.0837
angle_coeff   10   bb      11.4318       1.5780       1.4200
angle_coeff   10   ba       2.6868      20.4033       1.5780       1.4200
angle_coeff   11          112.6700      39.5160      -7.4448      -9.5589
angle_coeff   11   bb       0.0000       1.5780       1.5780
angle_coeff   11   ba       8.0160       8.0160       1.5780       1.5780
angle_coeff   12          112.6700      39.5160      -7.4448      -9.5589
angle_coeff   12   bb       0.0000       1.5780       1.5780
angle_coeff   12   ba       8.0160       8.0160       1.5780       1.5780
angle_coeff   13          119.3000      65.1016     -17.9746       0.0000
angle_coeff   13   bb      77.5201       1.2160       1.5140
angle_coeff   13   ba      46.6613      31.8455       1.2160       1.5140
angle_coeff   14          110.5884      34.6214      -7.0939      -7.4021
angle_coeff   14   bb      -7.1992       1.5140       1.5140
angle_coeff   14   ba      13.7595      13.7595       1.5140       1.5140
angle_coeff   15          104.5000      35.7454     -10.0051      -6.2733
angle_coeff   15   bb      -7.1131       1.4200       1.4200
angle_coeff   15   ba      -2.8112      -2.8112       1.4200       1.4200
angle_coeff   16          115.7280      60.0000       0.0000       0.0000
angle_coeff   16   bb       8.2983       1.4200       1.4200
angle_coeff   16   ba       0.0000       0.0000       1.4200       1.4200

dihedral_style class2
dihedral_coeff    1            0.0000       0.0000       0.0000       0.0000       0.0000       0.0000
dihedral_coeff    1  mbt       0.0000       0.0000       0.0000       1.5300
dihedral_coeff    1  ebt       0.0000       0.0000       0.0000       0.0000       0.0000       0.0000       1.4200       1.3200
dihedral_coeff    1   at       0.0000       0.0000       0.0000       0.0000       0.0000       0.0000     111.2700     110.0676
dihedral_coeff    1  aat       0.0000     111.2700     110.0676
dihedral_coeff    1 bb13       0.0000       1.4200       1.3200
dihedral_coeff    2           -1.5000       0.0000       0.0000       0.0000      -0.0808       0.0000
dihedral_coeff    2  mbt       0.0000       0.0000       0.0000       1.5300
dihedral_coeff    2  ebt       0.0000       0.0000       0.0000       0.0000       0.0000       0.0000       1.3200       1.3200
dihedral_coeff    2   at       0.0000       0.0000       0.0000       0.0000       0.0000       0.0000     110.0676     110.0676
dihedral_coeff    2  aat     -21.4435     110.0676     110.0676
dihedral_coeff    2 bb13       0.0000       1.3200       1.3200
dihedral_coeff    3            0.0000       0.0000       0.0514       0.0000      -0.1430       0.0000
dihedral_coeff    3  mbt     -17.7870      -7.1877       0.0000       1.5300
dihedral_coeff    3  ebt      -0.0732       0.0000       0.0000      -0.0732       0.0000       0.0000       1.5300       1.5300
dihedral_coeff    3   at       0.3886      -0.3139       0.1389       0.3886      -0.3139       0.1389     112.6700     112.6700
dihedral_coeff    3  aat     -22.0450     112.6700     112.6700
dihedral_coeff    3 bb13       0.0000       1.5300       1.5300
dihedral_coeff    4            0.0000       0.0000       0.0514       0.0000      -0.1430       0.0000
dihedral_coeff    4  mbt     -17.7870      -7.1877       0.0000       1.5300
dihedral_coeff    4  ebt      -0.0732       0.0000       0.0000      -0.0732       0.0000       0.0000       1.5300       1.5780
dihedral_coeff    4   at       0.3886      -0.3139       0.1389       0.3886      -0.3139       0.1389     112.6700     112.6700
dihedral_coeff    4  aat     -22.0450     112.6700     112.6700
dihedral_coeff    4 bb13       0.0000       1.5300       1.5780
dihedral_coeff    5            0.0000       0.0000       0.0514       0.0000      -0.1430       0.0000
dihedral_coeff    5  mbt     -17.7870      -7.1877       0.0000       1.5780
dihedral_coeff    5  ebt      -0.0732       0.0000       0.0000      -0.0732       0.0000       0.0000       1.5300       1.5780
dihedral_coeff    5   at       0.3886      -0.3139       0.1389       0.3886      -0.3139       0.1389     112.6700     112.6700
dihedral_coeff    5  aat     -22.0450     112.6700     112.6700
dihedral_coeff    5 bb13       0.0000       1.5300       1.5780
dihedral_coeff    6            0.7137       0.0000       0.2660       0.0000      -0.2545       0.0000
dihedral_coeff    6  mbt     -21.8842      -7.6764      -0.6868       1.5780
dihedral_coeff    6  ebt      -0.3190       0.4411      -0.7174       1.1538       0.8409      -0.9138       1.5300       1.4200
dihedral_coeff    6   at       0.5623      -0.3041      -0.4015       0.9672      -0.7566      -1.2331     112.6700     111.2700
dihedral_coeff    6  aat     -29.0420     112.6700     111.2700
dihedral_coeff    6 bb13       0.0000       1.5300       1.4200
dihedral_coeff    7            0.0929       0.0000       0.0689       0.0000      -0.2466       0.0000
dihedral_coeff    7  mbt     -11.4432      -4.0489      -1.6027       1.5780
dihedral_coeff    7  ebt      -1.9497      -1.4949       0.1225      -1.5243      -1.0182      -0.2416       1.5300       1.5140
dihedral_coeff    7   at      -0.7456      -0.9583       0.8454      -2.5845      -1.2743       1.7141     112.6700     108.4000
dihedral_coeff    7  aat     -20.3304     112.6700     108.4000
dihedral_coeff    7 bb13       0.0000       1.5300       1.5140
dihedral_coeff    8           -0.4000       0.0000      -0.4028       0.0000      -0.2450       0.0000
dihedral_coeff    8  mbt      -5.9288      -2.7007      -0.3175       1.4200
dihedral_coeff    8  ebt      -0.2456       1.0517      -0.7795       0.4741       1.2635       0.5576       1.5780       1.4200
dihedral_coeff    8   at      -2.7466       1.4877      -0.8955       0.5676       0.9450       0.0703     111.2700     104.5000
dihedral_coeff    8  aat     -19.0059     111.2700     104.5000
dihedral_coeff    8 bb13       0.0000       1.5780       1.4200
dihedral_coeff    9            0.0000       0.0000       0.0000       0.0000      -0.2000       0.0000
dihedral_coeff    9  mbt       0.0000       0.0000       0.0000       1.4200
dihedral_coeff    9  ebt       0.0000       0.0000       0.0000       0.0000       0.0000       0.0000       1.4200       1.5140
dihedral_coeff    9   at       0.0000       0.0000       0.0000       0.0000       0.0000       0.0000     104.5000     106.1764
dihedral_coeff    9  aat       0.0000     104.5000     106.1764
dihedral_coeff    9 bb13       0.0000       1.4200       1.5140
dihedral_coeff   10            0.6444       0.0000       0.7897       0.0000       1.0604       0.0000
dihedral_coeff   10  mbt      -5.3484       7.4360      -6.7454       1.5140
dihedral_coeff   10  ebt       0.8761       0.3895      -0.5940       3.0121      -2.8208       1.7493       1.4200       1.2160
dihedral_coeff   10   at       1.1337      -1.1729       1.3341       0.9678      -0.1998      -0.3288     106.1764     119.3000
dihedral_coeff   10  aat     -23.6140     106.1764     119.3000
dihedral_coeff   10 bb13       0.0000       1.4200       1.2160
dihedral_coeff   11            0.6989       0.0000       1.2089       0.0000      -0.0445       0.0000
dihedral_coeff   11  mbt     -24.0688      11.6419      -2.4192       1.5140
dihedral_coeff   11  ebt       1.5188       0.8667       0.2685       0.4883      -0.3582       0.3711       1.5780       1.2160
dihedral_coeff   11   at      11.5375      -0.4216      -0.0784       0.6781       1.4473      -0.1388     108.4000     119.3000
dihedral_coeff   11  aat     -24.7000     108.4000     119.3000
dihedral_coeff   11 bb13       0.0000       1.5780       1.2160
dihedral_coeff   12            0.0929       0.0000       0.0689       0.0000      -0.2466       0.0000
dihedral_coeff   12  mbt     -11.4432      -4.0489      -1.6027       1.5780
dihedral_coeff   12  ebt      -1.9497      -1.4949       0.1225      -1.5243      -1.0182      -0.2416       1.5780       1.5140
dihedral_coeff   12   at      -0.7456      -0.9583       0.8454      -2.5845      -1.2743       1.7141     112.6700     108.4000
dihedral_coeff   12  aat     -20.3304     112.6700     108.4000
dihedral_coeff   12 bb13       0.0000       1.5780       1.5140
dihedral_coeff   13            0.7137       0.0000       0.2660       0.0000      -0.2545       0.0000
dihedral_coeff   13  mbt     -21.8842      -7.6764      -0.6868       1.5780
dihedral_coeff   13  ebt       1.1538       0.8409      -0.9138      -0.3190       0.4411      -0.7174       1.4200       1.5780
dihedral_coeff   13   at       0.9672      -0.7566      -1.2331       0.5623      -0.3041      -0.4015     111.2700     112.6700
dihedral_coeff   13  aat     -29.0420     111.2700     112.6700
dihedral_coeff   13 bb13       0.0000       1.4200       1.5780
dihedral_coeff   14            0.0000       0.0000       0.0514       0.0000      -0.1430       0.0000
dihedral_coeff   14  mbt     -17.7870      -7.1877       0.0000       1.5780
dihedral_coeff   14  ebt      -0.0732       0.0000       0.0000      -0.0732       0.0000       0.0000       1.5780       1.5780
dihedral_coeff   14   at       0.3886      -0.3139       0.1389       0.3886      -0.3139       0.1389     112.6700     112.6700
dihedral_coeff   14  aat     -22.0450     112.6700     112.6700
dihedral_coeff   14 bb13       0.0000       1.5780       1.5780
dihedral_coeff   15            0.2904       0.0000       1.0177       0.0000      -0.1085       0.0000
dihedral_coeff   15  mbt     -23.1690      -7.7081      -2.7448       1.5140
dihedral_coeff   15  ebt      -0.3054       0.5117       0.1196       0.0055      -0.2149       0.1461       1.5780       1.5140
dihedral_coeff   15   at      11.8711       0.4675      -0.9932       3.3047       1.6116       0.6520     108.4000     110.5884
dihedral_coeff   15  aat     -10.3309     108.4000     110.5884
dihedral_coeff   15 bb13       0.0000       1.5780       1.5140
dihedral_coeff   16            0.0000       0.0000       0.2273       0.0000       0.7108       0.0000
dihedral_coeff   16  mbt       0.0000       0.0000       0.0000       1.5140
dihedral_coeff   16  ebt       0.0000       0.0000       0.0000       0.0000       0.0000       0.0000       1.4200       1.5140
dihedral_coeff   16   at       0.0000       0.0000       0.0000       0.0000       0.0000       0.0000     106.1764     110.5884
dihedral_coeff   16  aat       0.0000     106.1764     110.5884
dihedral_coeff   16 bb13       0.0000       1.4200       1.5140
dihedral_coeff   17            0.0000       0.0000       0.0000       0.0000       0.0000       0.0000
dihedral_coeff   17  mbt       0.0000       0.0000       0.0000       1.4200
dihedral_coeff   17  ebt       0.0000       0.0000       0.0000       0.0000       0.0000       0.0000       1.4200       1.3200
dihedral_coeff   17   at       0.0000       0.0000       0.0000       0.0000       0.0000       0.0000     104.5000     108.7280
dihedral_coeff   17  aat       0.0000     104.5000     108.7280
dihedral_coeff   17 bb13       0.0000       1.4200       1.3200
dihedral_coeff   18            1.1000       0.0000      -0.0500       0.0000      -0.1441       0.0000
dihedral_coeff   18  mbt     -17.2585      -3.6157      -0.8364       1.5300
dihedral_coeff   18  ebt       1.0165       0.7553      -0.4609       1.0165       0.7553      -0.4609       1.4200       1.4200
dihedral_coeff   18   at       0.5511       0.9737      -0.6673       0.5511       0.9737      -0.6673     111.2700     111.2700
dihedral_coeff   18  aat     -14.0484     111.2700     111.2700
dihedral_coeff   18 bb13       0.0000       1.4200       1.4200
dihedral_coeff   19           -0.4000       0.0000      -0.4028       0.0000      -0.2450       0.0000
dihedral_coeff   19  mbt      -5.9288      -2.7007      -0.3175       1.4200
dihedral_coeff   19  ebt      -0.2456       1.0517      -0.7795       0.4741       1.2635       0.5576       1.5300       1.4200
dihedral_coeff   19   at      -2.7466       1.4877      -0.8955       0.5676       0.9450       0.0703     111.2700     104.5000
dihedral_coeff   19  aat     -19.0059     111.2700     104.5000
dihedral_coeff   19 bb13       0.0000       1.5300       1.4200
dihedral_coeff   20            1.0000       0.0000      -1.0000       0.0000      -0.2000       0.0000
dihedral_coeff   20  mbt       0.0000       0.0000       0.0000       1.4200
dihedral_coeff   20  ebt       0.0000       0.0000       0.0000       0.0000       0.0000       0.0000       1.4200       1.4200
dihedral_coeff   20   at       0.0000       0.0000       0.0000       0.0000       0.0000       0.0000     104.5000     115.7280
dihedral_coeff   20  aat       0.0000     104.5000     115.7280
dihedral_coeff   20 bb13       0.0000       1.4200       1.4200

improper_style class2
improper_coeff    1            0.0000       0.0000
improper_coeff    1   aa      -0.1729      -0.1729      -0.1729     112.6700     112.6700     112.6700
improper_coeff    2            0.0000       0.0000
improper_coeff    2   aa      -0.1729      -0.1729      -0.1729     112.6700     112.6700     112.6700
improper_coeff    3            0.0000       0.0000
improper_coeff    3   aa       0.0000       0.0000       0.0000     108.4000     111.2700     106.1764
improper_coeff    4            0.0000       0.0000
improper_coeff    4   aa      -2.2400      -0.4167      -0.4167     108.4000     112.6700     108.4000
improper_coeff    5            0.0000       0.0000
improper_coeff    5   aa      -3.5744      -0.8330      -0.8330     111.2700     112.6700     111.2700
improper_coeff    6            0.0000       0.0000
improper_coeff    6   aa      -0.1729      -0.1729      -0.1729     112.6700     112.6700     112.6700
improper_coeff    7           77.5898       0.0000
improper_coeff    7   aa       0.0000       0.0000       0.0000     119.3000     110.5884     119.3000
improper_coeff    8            0.0000       0.0000
improper_coeff    8   aa       0.0000       0.0000       0.0000     108.7280     107.6000     108.7280
improper_coeff    9            0.0000       0.0000
improper_coeff    9   aa      46.2041      46.2041      46.2041     107.6000     107.6000     107.6000
improper_coeff   10            0.0000       0.0000
improper_coeff   10   aa      34.9175      31.7615      31.7615     110.0676     107.6000     110.0676
improper_coeff   11            0.0000       0.0000
improper_coeff   11   aa       0.0000       0.0000       0.0000     111.2700     108.7280     110.0676
improper_coeff   12            0.0000       0.0000
improper_coeff   12   aa       0.0000       0.0000       0.0000     115.7280     108.7280     108.7280
